
  22    4
  10   10   10   10

   0   0   0   0   0   5 2 3 4 5 6 
   4  10  10  10  10   4 11 10 9 7 
   9  10  10  10  10   4 14 11 10 9 
   9  10  10  10  10   3 12 11 9 
   2  10  10  10  10   3 15 14 8 
   3  10  10  10  10   4 20 14 12 11 
   6  10  10  10  10   5 21 20 14 13 12 
   6  10  10  10  10   2 12 11 
   1  10  10  10  10   5 21 20 19 17 15 
   6  10  10  10  10   3 19 13 12 
   1  10  10  10  10   4 19 18 17 13 
  10  10  10  10  10   3 18 17 16 
   3  10  10  10  10   1 16 
   4  10  10  10  10   1 17 
   8  10  10  10  10   1 16 
   4  10  10  10  10   1 22
   6  10  10  10  10   1 22
   4  10  10  10  10   1 22
   3  10  10  10  10   1 22
   9  10  10  10  10   1 22
   2  10  10  10  10   1 22
   0   0   0   0   0   0 
